149
1000
561
444
495
403
131
603
120
645
186
327
673
43
747
39
391
171
290
548
616
110
154
136
195
75
448
292
23
74
111
57
140
152
159
443
345
177
544
73
170
750
41
590
104
148
693
411
481
317
656
1
464
109
489
8
537
42
138
178
122
50
439
742
70
253
57
562
27
273
717
127
290
438
218
560
25
260
563
655
258
266
277
220
590
46
705
223
523
295
124
16
597
89
257
275
384
410
214
55
54
442
569
491
605
283
344
169
280
69
192
285
262
543
228
645
153
222
55
519
485
61
108
27
395
650
82
458
710
558
323
277
456
175
101
258
144
182
157
295
210
180
167
44
740
182
102
79
452
732
60
